####################################################################### 
# 
# This file contains crystal structure data downloaded from the 
# Cambridge Structural Database (CSD) hosted by the Cambridge 
# Crystallographic Data Centre (CCDC).
# 
# Full information about CCDC data access policies and citation 
# guidelines are available at http://www.ccdc.cam.ac.uk/access/V1 
# 
# Audit and citation data items may have been added by the CCDC. 
# Please retain this information to preserve the provenance of 
# this file and to allow appropriate attribution of the data. 
# 
#######################################################################

data_asp100
_audit_block_doi                 10.5517/cc66zzb
_database_code_depnum_ccdc_archive 'CCDC 185472'
loop_
_citation_id
_citation_doi
_citation_year
1 10.1039/b203379h 2003
_audit_update_record             
;
2002-05-09 deposited with the CCDC. 2020-02-22 downloaded from the CCDC.
;

_audit_creation_method           SHELXL-97
_chemical_name_systematic        
;
2-(acetoyloxy)benzoic acid
;
_chemical_name_common            Aspirin
_chemical_formula_sum            'C9 H8 O4'
_chemical_formula_weight         180.16

loop_
_atom_type_symbol
_atom_type_description
_atom_type_scat_length_neutron
_atom_type_scat_source
C C 6.646 'International Tables Vol C Table 4.4.4.1'
H H -3.739 'International Tables Vol C Table 4.4.4.1'
O O 5.803 'International Tables Vol C Table 4.4.4.1'

_symmetry_cell_setting           Monoclinic
_symmetry_space_group_name_H-M   P21/c

loop_
_symmetry_equiv_pos_as_xyz
'x, y, z'
'-x, y+1/2, -z+1/2'
'-x, -y, -z'
'x, -y-1/2, z-1/2'

_cell_length_a                   11.233(3)
_cell_length_b                   6.5440(10)
_cell_length_c                   11.231(3)
_cell_angle_alpha                90.00
_cell_angle_beta                 95.89(2)
_cell_angle_gamma                90.00
_cell_volume                     821.2(3)
_cell_formula_units_Z            4

_cell_measurement_temperature    100(1)
_cell_measurement_reflns_used    25
_cell_measurement_theta_min      ?

_exptl_crystal_description       'irregular prism'
_exptl_crystal_colour            colourless
_exptl_crystal_size_max          8
_exptl_crystal_size_mid          4
_exptl_crystal_size_min          1.5
_exptl_crystal_density_meas      ?
_exptl_crystal_density_diffrn    1.456
_exptl_crystal_density_method    'not measured'
_exptl_crystal_F_000             21
_exptl_absorpt_coefficient_mu    '1.0550, at 1 Angstrom'
_exptl_absorpt_correction_type   empirical
_exptl_absorpt_correction_T_min  0.45
_exptl_absorpt_correction_T_max  0.75
_exptl_absorpt_process_details   
;
The linear absorption coefficient is wavelength dependent
and it is calculated as:
mu = 0.80 + 0.75 * lambda [cm^-1]
;

_exptl_special_details           
;
For peak integration a local UB matrix refined for each frame,
using approximately 25 reflections.
Hence _cell_measurement_reflns_used 25

For final cell dimensions an average of all local
cells was performed and estimated standard uncertainties
were obtained from the spread of the local observations

Because of the nature of the experiment, it is not possible to give values of
theta_min and theta_max for the cell determination.

Instead, we can give values of

#_cell_measurement_sin(theta)/lambda_min 0.20
#_cell_measurement_sin(theta)/lambda_max 0.75

The same applies for the wavelength used for the experiment.
The range of wavelengths used was 0.5-5.0 Angstroms,
BUT the bulk of the diffraction information is obtained from
wavelengths in the range 0.7-2.5 Angstroms.

The data collection procedures on the SXD instrument used
for the single crystal neutron data collection are most
recently summarised in the Appendix to the following paper
Wilson, C.C. (1997). J. Mol. Struct. 405, 207-217.
;

_diffrn_ambient_temperature      100(2)
_diffrn_radiation_wavelength     0.5-5.0
_diffrn_radiation_type           neutron
_diffrn_radiation_source         'ISIS spallation source'
_diffrn_measurement_device       SXD
_diffrn_measurement_method       'time-of-flight LAUE diffraction'
_diffrn_reflns_number            3971
_diffrn_reflns_av_R_equivalents  0.068
_diffrn_reflns_av_sigmaI/netI    0.0414
_diffrn_reflns_limit_h_min       0
_diffrn_reflns_limit_h_max       24
_diffrn_reflns_limit_k_min       0
_diffrn_reflns_limit_k_max       14
_diffrn_reflns_limit_l_min       -16
_diffrn_reflns_limit_l_max       18
_diffrn_reflns_theta_min         ?
_diffrn_reflns_theta_max         ?
_reflns_number_total             1151
_reflns_number_gt                1151
_reflns_threshold_expression     >2sigma(I)

_computing_data_collection       ?
_computing_cell_refinement       ?
_computing_data_reduction        ?
_computing_structure_solution    ?
_computing_structure_refinement  'SHELXL-97 (Sheldrick, 1997)'
_computing_molecular_graphics    'ORTEP (Johnson, 1994)'
_computing_publication_material  ?

_refine_special_details          
;
These data are by no means complete.
They were collected in a very restricted geometry due
to the microwave apparatus also installed at the time.
The data/parameter ratio is also rather small, however
the refinements are stable and supportive of the
observations presented in the paper.

The microwave source was switched OFF for these data.

The variable wavelength nature of the data collection
procedure means that sensible values of
#_diffrn_reflns_theta_min & _diffrn_reflns_theta_max
cannot be given

It is also difficult to estimate realistic values of
maximum sin(theta)/lambda values for two reasons:
(i) Different sin(theta)/lambda ranges are accessed
in different parts of the detectors
(ii) The nature of the data collection occasionally
allows some reflections at very high sin(theta)/lambda
to be observed even when no real attempt has been
made to measure data in this region.

However, we can attempt to estimate the sin(theta)/lambda limits as follows:

#_diffrn_reflns_sin(theta)/lambda_min 0.05
#_diffrn_reflns_sin(theta)/lambda_max 0.75

Note also that reflections for which the standard profile fitting integration
procedure fails are excluded from the data set, thus resulting in a high
elimination rate of weak or "unobserved" peaks from the final data set.

The extinction coefficient reported in _refine_ls_extinction_coef is in this
case the refined value of the mosaic spread in units of 10^-4 rad^-1
The reference for the extinction method used is:
Becker, P. & Coppens, P. (1974). Acta Cryst. A30, 129-148.

Refinement of F^2^ against ALL reflections. The weighted R-factor wR and
goodness of fit S are based on F^2^, conventional R-factors R are based
on F, with F set to zero for negative F^2^. The threshold expression of
F^2^ > 2sigma(F^2^) is used only for calculating R-factors(gt) etc. and is
not relevant to the choice of reflections for refinement. R-factors based
on F^2^ are statistically about twice as large as those based on F, and R-
factors based on ALL data will be even larger.
;

_refine_ls_structure_factor_coef Fsqd
_refine_ls_matrix_type           full
_refine_ls_weighting_scheme      calc
_refine_ls_weighting_details     
'calc w=1/[\s^2^(Fo^2^)+(0.0763P)^2^+0.3996P] where P=(Fo^2^+2Fc^2^)/3'
_refine_ls_hydrogen_treatment    refall
_refine_ls_extinction_method     'Becker-Coppens Lorentzian model'
_refine_ls_extinction_coef       0.06
_refine_ls_number_reflns         1151
_refine_ls_number_parameters     190
_refine_ls_number_restraints     0
_refine_ls_R_factor_all          0.0958
_refine_ls_R_factor_gt           0.0958
_refine_ls_wR_factor_ref         0.2369
_refine_ls_wR_factor_gt          0.2369
_refine_ls_goodness_of_fit_ref   1.468
_refine_ls_restrained_S_all      1.468
_refine_ls_shift/su_max          0.001
_refine_ls_shift/su_mean         0.000

loop_
_atom_site_label
_atom_site_type_symbol
_atom_site_fract_x
_atom_site_fract_y
_atom_site_fract_z
_atom_site_U_iso_or_equiv
_atom_site_adp_type
_atom_site_occupancy
_atom_site_symmetry_multiplicity
_atom_site_calc_flag
_atom_site_refinement_flags
_atom_site_disorder_assembly
_atom_site_disorder_group
C1 C 0.1537(4) 0.5603(6) 0.0665(6) 0.0115(9) Uani 1 1 d . . .
C2 C 0.2473(4) 0.4838(6) 0.0088(5) 0.0118(10) Uani 1 1 d . . .
C3 C 0.2998(4) 0.2977(7) 0.0414(7) 0.0174(12) Uani 1 1 d . . .
C4 C 0.2609(4) 0.1876(7) 0.1352(7) 0.0199(12) Uani 1 1 d . . .
C5 C 0.1686(4) 0.2620(7) 0.1942(7) 0.0174(12) Uani 1 1 d . . .
C6 C 0.1158(4) 0.4463(7) 0.1614(6) 0.0158(11) Uani 1 1 d . . .
C7 C 0.0903(4) 0.7562(7) 0.0372(5) 0.0113(9) Uani 1 1 d . . .
C8 C 0.3674(4) 0.7373(7) -0.0623(6) 0.0137(10) Uani 1 1 d . . .
C9 C 0.3993(5) 0.8399(9) -0.1740(7) 0.0214(12) Uani 1 1 d . . .
O1 O 0.1235(5) 0.8590(10) -0.0527(9) 0.0201(15) Uani 1 1 d . . .
O2 O 0.0098(6) 0.8130(9) 0.0966(8) 0.0205(13) Uani 1 1 d . . .
O3 O 0.2886(5) 0.5827(8) -0.0890(7) 0.0136(11) Uani 1 1 d . . .
O4 O 0.4029(6) 0.7815(11) 0.0367(8) 0.0248(16) Uani 1 1 d . . .
H1 H 0.3698(11) 0.2377(19) -0.0095(17) 0.035(3) Uani 1 1 d . . .
H2 H 0.3016(12) 0.0396(16) 0.1593(16) 0.033(3) Uani 1 1 d . . .
H3 H 0.1406(11) 0.174(2) 0.2688(19) 0.040(4) Uani 1 1 d . . .
H4 H 0.0433(10) 0.507(2) 0.2083(16) 0.031(3) Uani 1 1 d . . .
H5 H 0.4618(18) 0.960(3) -0.145(3) 0.059(6) Uani 1 1 d . . .
H6 H 0.3200(16) 0.897(5) -0.224(3) 0.088(12) Uani 1 1 d . . .
H7 H 0.434(3) 0.735(4) -0.240(3) 0.072(7) Uani 1 1 d . . .
H8 H 0.0713(10) 0.9855(18) -0.0642(15) 0.030(3) Uani 1 1 d . . .

loop_
_atom_site_aniso_label
_atom_site_aniso_U_11
_atom_site_aniso_U_22
_atom_site_aniso_U_33
_atom_site_aniso_U_23
_atom_site_aniso_U_13
_atom_site_aniso_U_12
C1 0.0116(13) 0.0103(15) 0.013(3) 0.0003(14) 0.0039(19) 0.0000(11)
C2 0.0125(14) 0.0133(17) 0.010(3) -0.0038(14) 0.0035(19) 0.0000(11)
C3 0.0186(17) 0.0144(19) 0.020(4) -0.0003(18) 0.007(2) 0.0048(13)
C4 0.0183(18) 0.0138(19) 0.028(4) 0.0034(19) 0.006(2) 0.0039(13)
C5 0.0132(15) 0.0177(19) 0.022(4) 0.0047(19) 0.006(2) 0.0016(13)
C6 0.0143(15) 0.0155(18) 0.018(3) 0.0037(17) 0.005(2) 0.0013(13)
C7 0.0127(14) 0.0126(18) 0.009(3) 0.0005(15) 0.0044(17) 0.0025(11)
C8 0.0103(13) 0.0199(19) 0.012(3) -0.0024(17) 0.0050(18) -0.0027(12)
C9 0.023(2) 0.029(3) 0.013(4) 0.003(2) 0.006(3) -0.0061(17)
O1 0.0166(19) 0.022(2) 0.023(5) 0.008(2) 0.006(3) 0.0058(16)
O2 0.025(2) 0.018(2) 0.021(4) 0.006(2) 0.012(3) 0.0093(17)
O3 0.0163(18) 0.014(2) 0.011(3) -0.0052(18) 0.002(2) -0.0008(14)
O4 0.027(3) 0.032(3) 0.015(5) -0.007(3) 0.006(3) -0.013(2)
H1 0.033(5) 0.031(6) 0.040(10) 0.001(5) 0.005(6) 0.010(4)
H2 0.047(6) 0.018(4) 0.036(10) 0.009(4) 0.010(7) 0.011(4)
H3 0.028(5) 0.041(6) 0.052(12) 0.030(7) 0.009(7) 0.007(4)
H4 0.027(4) 0.039(6) 0.028(9) 0.006(5) 0.009(6) 0.004(4)
H5 0.062(9) 0.054(10) 0.063(19) -0.002(9) 0.017(12) -0.026(7)
H6 0.040(8) 0.115(18) 0.10(3) 0.081(19) -0.030(12) -0.016(9)
H7 0.13(2) 0.072(14) 0.024(15) -0.007(9) 0.045(15) -0.004(12)
H8 0.031(4) 0.030(5) 0.031(9) 0.009(5) 0.009(6) 0.009(4)

_geom_special_details            
;
All esds (except the esd in the dihedral angle between two l.s. planes)
are estimated using the full covariance matrix. The cell esds are taken
into account individually in the estimation of esds in distances, angles
and torsion angles; correlations between esds in cell parameters are only
used when they are defined by crystal symmetry. An approximate (isotropic)
treatment of cell esds is used for estimating esds involving l.s. planes.
;

loop_
_geom_bond_atom_site_label_1
_geom_bond_atom_site_label_2
_geom_bond_distance
_geom_bond_site_symmetry_2
_geom_bond_publ_flag
C1 C2 1.385(7) . ?
C1 C6 1.402(9) . ?
C1 C7 1.487(6) . ?
C2 C3 1.386(6) . ?
C2 O3 1.394(10) . ?
C3 C4 1.384(10) . ?
C3 H1 1.091(16) . ?
C4 C5 1.376(9) . ?
C4 H2 1.093(11) . ?
C5 C6 1.377(7) . ?
C5 H3 1.091(17) . ?
C6 H4 1.089(16) . ?
C7 O2 1.235(9) . ?
C7 O1 1.299(10) . ?
C8 O4 1.177(11) . ?
C8 O3 1.358(7) . ?
C8 C9 1.499(10) . ?
C9 H5 1.083(18) . ?
C9 H6 1.069(17) . ?
C9 H7 1.11(3) . ?
O1 H8 1.016(12) . ?

loop_
_geom_angle_atom_site_label_1
_geom_angle_atom_site_label_2
_geom_angle_atom_site_label_3
_geom_angle
_geom_angle_site_symmetry_1
_geom_angle_site_symmetry_3
_geom_angle_publ_flag
C2 C1 C6 117.9(4) . . ?
C2 C1 C7 125.3(5) . . ?
C6 C1 C7 116.8(4) . . ?
C1 C2 C3 121.1(5) . . ?
C1 C2 O3 122.1(5) . . ?
C3 C2 O3 116.7(5) . . ?
C4 C3 C2 120.0(5) . . ?
C4 C3 H1 120.8(9) . . ?
C2 C3 H1 119.2(10) . . ?
C5 C4 C3 119.7(5) . . ?
C5 C4 H2 120.7(11) . . ?
C3 C4 H2 119.6(10) . . ?
C4 C5 C6 120.4(6) . . ?
C4 C5 H3 118.2(9) . . ?
C6 C5 H3 121.3(9) . . ?
C5 C6 C1 120.9(5) . . ?
C5 C6 H4 120.8(9) . . ?
C1 C6 H4 118.3(8) . . ?
O2 C7 O1 123.3(5) . . ?
O2 C7 C1 120.0(5) . . ?
O1 C7 C1 116.7(5) . . ?
O4 C8 O3 122.8(7) . . ?
O4 C8 C9 126.4(6) . . ?
O3 C8 C9 110.8(6) . . ?
C8 C9 H5 105.8(16) . . ?
C8 C9 H6 109.5(15) . . ?
H5 C9 H6 113(2) . . ?
C8 C9 H7 114.4(15) . . ?
H5 C9 H7 113(2) . . ?
H6 C9 H7 101(3) . . ?
C7 O1 H8 108.2(11) . . ?
C8 O3 C2 115.7(6) . . ?

_refine_diff_density_max         0.174
_refine_diff_density_min         -0.169
_refine_diff_density_rms         0.041
