####################################################################### 
# 
# This file contains crystal structure data downloaded from the 
# Cambridge Structural Database (CSD) hosted by the Cambridge 
# Crystallographic Data Centre (CCDC).
# 
# Full information about CCDC data access policies and citation 
# guidelines are available at http://www.ccdc.cam.ac.uk/access/V1 
# 
# Audit and citation data items may have been added by the CCDC. 
# Please retain this information to preserve the provenance of 
# this file and to allow appropriate attribution of the data. 
# 
#######################################################################

data_COUMARIN
_audit_block_doi                 10.5517/cc8xw89
_database_code_depnum_ccdc_archive 'CCDC 266081'
loop_
_citation_id
_citation_doi
_citation_year
1 10.1021/jp046388s 2005
_audit_update_record             
;
2005-03-11 deposited with the CCDC.	2021-05-12 downloaded from the CCDC.
;
_chemical_name_systematic        
;
2H-chromene-2-one
;
_chemical_formula_moiety         'C9 H6 O2'
_exptl_crystal_description       block
_exptl_crystal_colour            colorless
_exptl_crystal_size_max          0.60
_exptl_crystal_size_mid          0.17
_exptl_crystal_size_min          0.09
_chemical_formula_sum            'C9 H6 O2'
_chemical_name_common            coumarin
_chemical_formula_weight         146.14
_symmetry_cell_setting           Orthorhombic
_symmetry_space_group_name_H-M   'P c 21 b'
_symmetry_space_group_name_Hall  'P -2bc -2c'

_cell_length_a                   5.6091(13)
_cell_length_b                   7.7343(19)
_cell_length_c                   15.478(4)
_cell_angle_alpha                90.000
_cell_angle_beta                 90.000
_cell_angle_gamma                90.000
_cell_volume                     671.5(3)
_cell_formula_units_Z            4
_exptl_crystal_density_diffrn    1.446
loop_
_symmetry_equiv_pos_site_id
_symmetry_equiv_pos_as_xyz
1 +X,+Y,+Z
2 +X,1/2+Y,1/2-Z
3 -X,+Y,1/2+Z
4 -X,1/2+Y,-Z
_cell_measurement_reflns_used    8441
_cell_measurement_theta_min      2.63
_cell_measurement_theta_max      49.43
_cell_measurement_temperature    90.0(2)
_diffrn_radiation_type           MoK\a
_diffrn_radiation_wavelength     0.71073
_exptl_absorpt_coefficient_mu    0.103
_exptl_crystal_F_000             304
_exptl_absorpt_correction_type   multi-scan
_exptl_absorpt_correction_T_min  0.8510
_exptl_absorpt_correction_T_max  0.9908
_exptl_absorpt_process_details   
;
R.H. Blessing, Acta Cryst. (1995), A51, 33-38
;
_exptl_special_details           
;
Multipole refinement.
Crystal to Detector distance was 6.03 cm, \w range is 0.3 \% and
exposure time was 20s, 40s and 60s in three batches respectively.
;
_diffrn_measurement_device       'CCD area detector Bruker Axs SMART APEX'
_diffrn_measurement_method       '\w scans'
_diffrn_reflns_number            33367
_reflns_number_total             6288
_reflns_number_gt                5742
_reflns_threshold_expression     >3sigma(I)
_diffrn_reflns_av_R_equivalents  0.0312
_diffrn_reflns_theta_min         2.63
_diffrn_reflns_theta_max         50.16
_diffrn_reflns_limit_h_min       0
_diffrn_reflns_limit_h_max       12
_diffrn_reflns_limit_k_min       -16
_diffrn_reflns_limit_k_max       15
_diffrn_reflns_limit_l_min       0
_diffrn_reflns_limit_l_max       33
_diffrn_reflns_theta_full        50.16
_diffrn_measured_fraction_theta_max 0.984
_diffrn_measured_fraction_theta_full 0.984
_diffrn_standards_number         ?
_diffrn_standards_interval_time  ?
_diffrn_standards_decay_%        0
_refine_ls_structure_factor_coef F
_refine_ls_matrix_type           full
_refine_ls_R_factor_gt           0.0243
_refine_ls_R_factor_all          0.0278
_refine_ls_wR_factor_ref         0.0251
_refine_ls_hydrogen_treatment    refall
_refine_ls_number_restraints     0
_refine_ls_number_reflns         5742
_refine_ls_number_parameters     391
_refine_ls_goodness_of_fit_ref   2.0971
_refine_ls_weighting_scheme      calc
_refine_ls_weighting_details     
;
calc w1 = Fo*sqrt(w2) + sqrt(Fo^2^w2^2^ + sqrt(w2^2^))
where
calc w2 = q/[s^2^(Fo^2^) + (0.00 P)^2^ + 0.00 P + 0.00 + 0.00 sin(th)]
where P = (0.3333 Fo^2^ + 0.6667 Fc^2^)
q = 1.0
;
_refine_ls_shift/su_max          0.0000
_refine_ls_shift/su_mean         0.0000
_refine_diff_density_max         0.174
_refine_diff_density_min         -0.241
_refine_ls_extinction_method     none
_refine_ls_abs_structure_details 
;
Flack H D (1983), Acta Cryst. A39, 876-881,
Flack,H.D. & Bernardinelli, G. (1999) Acta Cryst. A55,
908-915 and (2000) J. Appl. Cryst., 33, 1143-1148.
;
_refine_ls_abs_structure_Flack   0.04(3)
_chemical_absolute_configuration unk
loop_
_atom_type_symbol
_atom_type_description
_atom_type_scat_dispersion_real
_atom_type_scat_dispersion_imag
_atom_type_scat_source
C C 0.0033 0.0016 'International Tables Vol C Tables 4.2.6.8 and 6.1.1.4'
H H 0.0000 0.0000 'International Tables Vol C Tables 4.2.6.8 and 6.1.1.4'
O O 0.0106 0.0060 'International Tables Vol C Tables 4.2.6.8 and 6.1.1.4'

_computing_data_collection       'Bruker SMART'
_computing_cell_refinement       'Bruker SMART'
_computing_data_reduction        'Bruker SAINT'
_computing_structure_solution    'SHELXS-97 (Sheldrick, 1997)'
_computing_structure_refinement  'Koritsanszky et al, (2003)'
_computing_molecular_graphics    'Koritsanszky et al, (2003)'
_computing_publication_material  'Koritsanszky et al, (2003)'
loop_
_atom_site_label
_atom_site_fract_x
_atom_site_fract_y
_atom_site_fract_z
_atom_site_occupancy
_atom_site_U_iso_or_equiv
O(1) -0.0093(1) 0.3905 0.65508(4) 1.0000 0.014
O(2) -0.1083(1) 0.4838(1) 0.78495(4) 1.0000 0.019
C(8) 0.14305(6) 0.30639(11) 0.59989(2) 1.0000 0.012
C(3) 0.40510(7) 0.24149(12) 0.72104(2) 1.0000 0.014
C(7) 0.08085(7) 0.30390(12) 0.51272(2) 1.0000 0.014
C(9) 0.35298(6) 0.22949(11) 0.63011(2) 1.0000 0.012
C(4) 0.50270(7) 0.14533(11) 0.57062(3) 1.0000 0.014
C(1) 0.03586(6) 0.40415(12) 0.74185(2) 1.0000 0.014
C(2) 0.25249(7) 0.32433(12) 0.77450(3) 1.0000 0.015
C(6) 0.23144(8) 0.22004(12) 0.45497(3) 1.0000 0.016
C(5) 0.44115(8) 0.13997(12) 0.48381(3) 1.0000 0.016
H(2) 0.28146 0.33888 0.84310 1.0000 0.023(4)
H(6) 0.18089 0.21105 0.38779 1.0000 0.043(4)
H(5) 0.55424 0.07186 0.43874 1.0000 0.038(4)
H(7) -0.07996 0.36385 0.48873 1.0000 0.033(4)
H(3) 0.56483 0.18016 0.74510 1.0000 0.041(5)
H(4) 0.66476 0.08596 0.59384 1.0000 0.036(5)
loop_
_atom_site_aniso_label
_atom_site_aniso_U_11
_atom_site_aniso_U_22
_atom_site_aniso_U_33
_atom_site_aniso_U_12
_atom_site_aniso_U_13
_atom_site_aniso_U_23
O(1) 0.0125(2) 0.0155(2) 0.0140(2) 0.0034(2) 0.0001(2) 0.0004(2)
O(2) 0.0177(2) 0.0216(2) 0.0185(2) 0.0043(2) 0.0043(2) -0.0036(2)
C(8) 0.0113(1) 0.0116(1) 0.0119(1) 0.0009(1) -0.0001(1) 0.0007(1)
C(3) 0.0132(1) 0.0140(1) 0.0134(1) 0.0016(1) -0.0020(1) -0.0002(1)
C(7) 0.0151(1) 0.0152(1) 0.0126(1) 0.0011(1) -0.0015(1) 0.0009(1)
C(9) 0.0113(1) 0.0115(1) 0.0125(1) 0.0012(1) 0.0000(1) 0.0006(1)
C(4) 0.0140(1) 0.0142(1) 0.0150(2) 0.0028(1) 0.0014(1) 0.0000(1)
C(1) 0.0136(1) 0.0135(1) 0.0140(1) 0.0012(1) 0.0019(1) -0.0008(1)
C(2) 0.0157(1) 0.0152(1) 0.0129(1) 0.0011(1) -0.0011(1) -0.0014(1)
C(6) 0.0197(1) 0.0155(1) 0.0121(1) 0.0004(1) 0.0001(1) -0.0001(1)
C(5) 0.0187(2) 0.0152(1) 0.0147(1) 0.0024(1) 0.0028(1) -0.0009(1)
loop_
_geom_bond_atom_site_label_1
_geom_bond_atom_site_label_2
_geom_bond_distance
_geom_bond_site_symmetry_1
_geom_bond_site_symmetry_2
_geom_bond_publ_flag
O(1) C(8) 1.3721(8) 1_555 1_555 yes
O(1) C(1) 1.3708(8) 1_555 1_555 yes
O(2) C(1) 1.2160(7) 1_555 1_555 yes
C(8) C(7) 1.3937(5) 1_555 1_555 yes
C(8) C(9) 1.3997(4) 1_555 1_555 yes
C(3) C(9) 1.4404(5) 1_555 1_555 yes
C(3) C(2) 1.3521(5) 1_555 1_555 yes
C(3) H(3) 1.0800 1_555 1_555 yes
C(7) C(6) 1.3904(6) 1_555 1_555 yes
C(7) H(7) 1.0800 1_555 1_555 yes
C(9) C(4) 1.4060(5) 1_555 1_555 yes
C(4) C(5) 1.3879(6) 1_555 1_555 yes
C(4) H(4) 1.0800 1_555 1_555 yes
C(1) C(2) 1.4536(5) 1_555 1_555 yes
C(2) H(2) 1.0800 1_555 1_555 yes
C(6) C(5) 1.4023(6) 1_555 1_555 yes
C(6) H(6) 1.0800 1_555 1_555 yes
C(5) H(5) 1.0800 1_555 1_555 yes
loop_
_geom_angle_atom_site_label_1
_geom_angle_atom_site_label_2
_geom_angle_atom_site_label_3
_geom_angle
_geom_angle_site_symmetry_1
_geom_angle_site_symmetry_2
_geom_angle_site_symmetry_3
_geom_angle_publ_flag
C(8) O(1) C(1) 122.11(5) 1_555 1_555 1_555 yes
O(1) C(8) C(7) 116.96(4) 1_555 1_555 1_555 yes
O(1) C(8) C(9) 121.15(4) 1_555 1_555 1_555 yes
C(7) C(8) C(9) 121.88(3) 1_555 1_555 1_555 yes
C(9) C(3) C(2) 120.00(3) 1_555 1_555 1_555 yes
C(9) C(3) H(3) 118.49 1_555 1_555 1_555 yes
C(2) C(3) H(3) 121.48 1_555 1_555 1_555 yes
C(8) C(7) C(6) 118.47(4) 1_555 1_555 1_555 yes
C(8) C(7) H(7) 122.41 1_555 1_555 1_555 yes
C(6) C(7) H(7) 119.12 1_555 1_555 1_555 yes
C(8) C(9) C(3) 118.02(3) 1_555 1_555 1_555 yes
C(8) C(9) C(4) 118.71(3) 1_555 1_555 1_555 yes
C(3) C(9) C(4) 123.26(3) 1_555 1_555 1_555 yes
C(9) C(4) C(5) 119.95(4) 1_555 1_555 1_555 yes
C(9) C(4) H(4) 118.79 1_555 1_555 1_555 yes
C(5) C(4) H(4) 121.26 1_555 1_555 1_555 yes
O(1) C(1) O(2) 116.99(5) 1_555 1_555 1_555 yes
O(1) C(1) C(2) 117.53(4) 1_555 1_555 1_555 yes
O(2) C(1) C(2) 125.48(5) 1_555 1_555 1_555 yes
C(3) C(2) C(1) 121.18(4) 1_555 1_555 1_555 yes
C(3) C(2) H(2) 123.77 1_555 1_555 1_555 yes
C(1) C(2) H(2) 115.04 1_555 1_555 1_555 yes
C(7) C(6) C(5) 120.73(4) 1_555 1_555 1_555 yes
C(7) C(6) H(6) 119.31 1_555 1_555 1_555 yes
C(5) C(6) H(6) 119.88 1_555 1_555 1_555 yes
C(4) C(5) C(6) 120.24(4) 1_555 1_555 1_555 yes
C(4) C(5) H(5) 119.59 1_555 1_555 1_555 yes
C(6) C(5) H(5) 120.17 1_555 1_555 1_555 yes
loop_
_geom_torsion_atom_site_label_1
_geom_torsion_atom_site_label_2
_geom_torsion_atom_site_label_3
_geom_torsion_atom_site_label_4
_geom_torsion
_geom_torsion_site_symmetry_1
_geom_torsion_site_symmetry_2
_geom_torsion_site_symmetry_3
_geom_torsion_site_symmetry_4
_geom_torsion_publ_flag
C(8) O(1) C(1) O(2) 178.8(1) 1_555 1_555 1_555 1_555 yes
C(1) O(1) C(8) C(7) -178.7(1) 1_555 1_555 1_555 1_555 yes
C(1) O(1) C(8) C(9) 0.3(1) 1_555 1_555 1_555 1_555 yes
C(8) O(1) C(1) C(2) -0.6(1) 1_555 1_555 1_555 1_555 yes
O(1) C(8) C(7) C(6) 179.9(1) 1_555 1_555 1_555 1_555 yes
O(1) C(8) C(7) H(7) -0.5 1_555 1_555 1_555 1_555 yes
O(1) C(8) C(9) C(3) -0.2(1) 1_555 1_555 1_555 1_555 yes
O(1) C(8) C(9) C(4) -179.9(1) 1_555 1_555 1_555 1_555 yes
C(7) C(8) C(9) C(3) 178.8(1) 1_555 1_555 1_555 1_555 yes
C(7) C(8) C(9) C(4) -1.0(1) 1_555 1_555 1_555 1_555 yes
C(9) C(8) C(7) C(6) 0.9(1) 1_555 1_555 1_555 1_555 yes
C(9) C(8) C(7) H(7) -179.4 1_555 1_555 1_555 1_555 yes
C(2) C(3) C(9) C(8) 0.4(1) 1_555 1_555 1_555 1_555 yes
C(2) C(3) C(9) C(4) -179.9(1) 1_555 1_555 1_555 1_555 yes
C(9) C(3) C(2) C(1) -0.7(1) 1_555 1_555 1_555 1_555 yes
C(9) C(3) C(2) H(2) -179.5 1_555 1_555 1_555 1_555 yes
H(3) C(3) C(9) C(8) 178.7 1_555 1_555 1_555 1_555 yes
H(3) C(3) C(9) C(4) -1.6 1_555 1_555 1_555 1_555 yes
H(3) C(3) C(2) C(1) -179.0 1_555 1_555 1_555 1_555 yes
H(3) C(3) C(2) H(2) 2.2 1_555 1_555 1_555 1_555 yes
C(8) C(7) C(6) C(5) -0.1(1) 1_555 1_555 1_555 1_555 yes
C(8) C(7) C(6) H(6) 176.7 1_555 1_555 1_555 1_555 yes
H(7) C(7) C(6) C(5) -179.7 1_555 1_555 1_555 1_555 yes
H(7) C(7) C(6) H(6) -2.9 1_555 1_555 1_555 1_555 yes
C(8) C(9) C(4) C(5) 0.1(1) 1_555 1_555 1_555 1_555 yes
C(8) C(9) C(4) H(4) 180.0 1_555 1_555 1_555 1_555 yes
C(3) C(9) C(4) C(5) -179.6(1) 1_555 1_555 1_555 1_555 yes
C(3) C(9) C(4) H(4) 0.3 1_555 1_555 1_555 1_555 yes
C(9) C(4) C(5) C(6) 0.8(1) 1_555 1_555 1_555 1_555 yes
C(9) C(4) C(5) H(5) -178.2 1_555 1_555 1_555 1_555 yes
H(4) C(4) C(5) C(6) -179.1 1_555 1_555 1_555 1_555 yes
H(4) C(4) C(5) H(5) 1.9 1_555 1_555 1_555 1_555 yes
O(1) C(1) C(2) C(3) 0.8(1) 1_555 1_555 1_555 1_555 yes
O(1) C(1) C(2) H(2) 179.7 1_555 1_555 1_555 1_555 yes
O(2) C(1) C(2) C(3) -178.5(1) 1_555 1_555 1_555 1_555 yes
O(2) C(1) C(2) H(2) 0.4 1_555 1_555 1_555 1_555 yes
C(7) C(6) C(5) C(4) -0.8(1) 1_555 1_555 1_555 1_555 yes
C(7) C(6) C(5) H(5) 178.2 1_555 1_555 1_555 1_555 yes
H(6) C(6) C(5) C(4) -177.5 1_555 1_555 1_555 1_555 yes
H(6) C(6) C(5) H(5) 1.4 1_555 1_555 1_555 1_555 yes
loop_
_atom_rho_multipole_label
_atom_rho_multipole_coeff_Pv
_atom_rho_multipole_coeff_P00
_atom_rho_multipole_coeff_P11
_atom_rho_multipole_coeff_P1-1
_atom_rho_multipole_coeff_P10
_atom_rho_multipole_coeff_P20
_atom_rho_multipole_coeff_P21
_atom_rho_multipole_coeff_P2-1
_atom_rho_multipole_coeff_P22
_atom_rho_multipole_coeff_P2-2
_atom_rho_multipole_coeff_P30
_atom_rho_multipole_coeff_P31
_atom_rho_multipole_coeff_P3-1
_atom_rho_multipole_coeff_P32
_atom_rho_multipole_coeff_P3-2
_atom_rho_multipole_coeff_P33
_atom_rho_multipole_coeff_P3-3
_atom_rho_multipole_coeff_P40
_atom_rho_multipole_coeff_P41
_atom_rho_multipole_coeff_P4-1
_atom_rho_multipole_coeff_P42
_atom_rho_multipole_coeff_P4-2
_atom_rho_multipole_coeff_P43
_atom_rho_multipole_coeff_P4-3
_atom_rho_multipole_coeff_P44
_atom_rho_multipole_coeff_P4-4
_atom_rho_multipole_kappa_prime
_atom_rho_multipole_kappa_dprime0
_atom_rho_multipole_kappa_dprime1
_atom_rho_multipole_kappa_dprime2
_atom_rho_multipole_kappa_dprime3
_atom_rho_multipole_kappa_dprime4
O(1) 6.64(3) 0.00 -0.003(15) -0.057(12) -0.047(13) -0.059(15) -0.009(14)
0.070(13) -0.006(13) 0.004(13) 0.052(8) 0.004(9) 0.022(8) 0.032(8) -0.008(7)
-0.001(7) -0.014(9) 0.026(11) -0.004(10) 0.016(9) -0.003(10) -0.033(10)
-0.043(9) -0.002(10) 0.059(9) -0.060(9) 0.99 1.42 1.42 1.42 1.42 1.42
O(2) 6.51(3) 0.00 0.046(18) -0.021(15) -0.041(15) 0.021(16) 0.037(15)
-0.059(14) -0.088(15) 0.030(17) 0.003(11) -0.007(9) -0.011(11) 0.028(11)
-0.022(10) -0.001(11) 0.021(10) 0.026(12) -0.017(11) -0.006(11) -0.034(12)
-0.085(11) -0.012(12) 0.039(12) 0.040(12) 0.021(12) 1.00 1.21 1.21 1.21 1.21
1.21
C(8) 3.78(6) 0.00 -0.03(3) 0.08(3) -0.19(3) 0.00(2) 0.019(19) 0.05(2) -0.22(2)
0.00(2) 0.36(3) -0.04(2) -0.13(3) 0.18(3) 0.00(3) -0.01(2) -0.09(3) 0.11(3)
-0.07(3) 0.00(4) -0.01(3) 0.05(3) -0.11(3) -0.08(3) 0.05(3) 0.00(3) 1.06 0.86
0.86 0.86 0.86 0.86
C(3) 3.96(6) 0.00 0.00(3) -0.04(3) -0.02(4) 0.14(3) -0.01(2) -0.05(2) -0.21(2)
0.04(2) 0.35(3) 0.02(2) 0.00(3) 0.25(3) -0.03(3) 0.00(3) 0.06(3) 0.10(4)
-0.04(2) 0.03(4) -0.16(3) 0.05(3) 0.01(3) 0.00(3) 0.04(3) -0.01(3) 1.06 0.86
0.86 0.86 0.86 0.86
C(7) 3.99(6) 0.00 0.05(3) 0.04(4) -0.03(4) 0.15(3) -0.03(2) -0.03(3) -0.12(2)
-0.06(2) 0.33(3) 0.02(2) -0.15(3) 0.19(3) 0.01(3) -0.01(3) -0.02(3) 0.01(4)
0.07(2) -0.05(4) -0.13(3) -0.04(3) 0.01(3) -0.03(3) 0.02(3) -0.01(3) 1.06 0.86
0.86 0.86 0.86 0.86
C(9) 3.67(6) 0.00 -0.04(3) 0.08(3) -0.01(3) 0.14(3) 0.07(2) -0.05(2) -0.11(2)
-0.04(2) 0.30(3) 0.03(2) -0.05(3) 0.22(3) 0.03(3) 0.01(2) -0.01(3) 0.09(4)
0.04(3) -0.11(4) 0.03(3) -0.03(4) 0.02(3) -0.05(3) -0.01(3) 0.00(3) 1.06 0.86
0.86 0.86 0.86 0.86
C(4) 4.17(6) 0.00 0.06(3) 0.05(4) -0.04(4) 0.15(3) 0.04(2) -0.06(3) -0.17(2)
0.02(3) 0.29(3) 0.00(2) 0.18(3) 0.32(3) -0.01(3) 0.02(3) -0.05(3) 0.00(4)
0.04(3) -0.08(4) -0.12(3) 0.05(3) -0.04(3) -0.03(3) 0.05(3) -0.03(3) 1.06 0.86
0.86 0.86 0.86 0.86
C(1) 4.01(5) 0.00 -0.08(3) -0.01(2) 0.05(3) 0.37(2) -0.02(2) 0.16(2) -0.15(2)
0.03(2) 0.41(3) 0.04(2) -0.06(3) 0.33(3) -0.07(2) 0.02(3) -0.05(2) -0.03(4)
0.02(3) 0.17(4) -0.08(3) -0.03(3) -0.01(3) -0.06(3) 0.10(3) -0.02(3) 1.06 0.86
0.86 0.86 0.86 0.86
C(2) 3.89(6) 0.00 0.01(3) 0.07(3) 0.10(3) -0.01(3) -0.04(2) -0.09(2) -0.14(2)
0.01(2) 0.31(3) 0.00(3) 0.06(3) 0.16(3) -0.04(2) 0.00(2) 0.04(3) 0.09(4)
-0.05(3) 0.03(3) 0.04(3) -0.04(3) -0.03(3) 0.03(3) 0.03(3) -0.06(3) 1.06 0.86
0.86 0.86 0.86 0.86
C(6) 3.95(6) 0.00 0.05(3) 0.02(4) 0.01(4) 0.02(3) -0.05(2) -0.03(2) -0.18(2)
-0.01(2) 0.34(3) -0.02(3) 0.09(3) 0.21(3) 0.07(3) -0.02(3) -0.02(3) 0.01(4)
-0.06(3) -0.02(3) -0.02(3) -0.02(3) 0.07(3) 0.04(3) 0.02(3) 0.09(3) 1.06 0.86
0.86 0.86 0.86 0.86
C(5) 4.00(6) 0.00 0.01(4) -0.06(4) 0.02(4) -0.02(3) -0.026(19) 0.15(3) -0.21(3)
-0.03(3) 0.29(3) 0.07(2) -0.12(3) 0.23(3) 0.05(3) -0.02(3) 0.01(3) 0.10(4)
0.01(2) 0.09(4) -0.05(3) -0.06(3) 0.14(3) 0.00(3) 0.03(3) 0.03(3) 1.06 0.86
0.86 0.86 0.86 0.86
H(2) 0.75(5) 0.00 0.00 0.00 0.16(3) 0.00 0.00 0.00 0.00 0.00 0.00 0.00 0.00
0.00 0.00 0.00 0.00 0.00 0.00 0.00 0.00 0.00 0.00 0.00 0.00 0.00 1.20 1.20 1.20
1.20 1.20 1.20
H(6) 1.02(6) 0.00 0.00 0.00 0.25(3) 0.00 0.00 0.00 0.00 0.00 0.00 0.00 0.00
0.00 0.00 0.00 0.00 0.00 0.00 0.00 0.00 0.00 0.00 0.00 0.00 0.00 1.20 1.20 1.20
1.20 1.20 1.20
H(5) 0.96(6) 0.00 0.00 0.00 0.18(3) 0.00 0.00 0.00 0.00 0.00 0.00 0.00 0.00
0.00 0.00 0.00 0.00 0.00 0.00 0.00 0.00 0.00 0.00 0.00 0.00 0.00 1.20 1.20 1.20
1.20 1.20 1.20
H(7) 0.91(5) 0.00 0.00 0.00 0.16(3) 0.00 0.00 0.00 0.00 0.00 0.00 0.00 0.00
0.00 0.00 0.00 0.00 0.00 0.00 0.00 0.00 0.00 0.00 0.00 0.00 0.00 1.20 1.20 1.20
1.20 1.20 1.20
H(3) 0.89(5) 0.00 0.00 0.00 0.23(3) 0.00 0.00 0.00 0.00 0.00 0.00 0.00 0.00
0.00 0.00 0.00 0.00 0.00 0.00 0.00 0.00 0.00 0.00 0.00 0.00 0.00 1.20 1.20 1.20
1.20 1.20 1.20
H(4) 0.91(6) 0.00 0.00 0.00 0.17(3) 0.00 0.00 0.00 0.00 0.00 0.00 0.00 0.00
0.00 0.00 0.00 0.00 0.00 0.00 0.00 0.00 0.00 0.00 0.00 0.00 0.00 1.20 1.20 1.20
1.20 1.20 1.20
loop_
_atom_local_axes_label
_atom_local_axes_atom0
_atom_local_axes_ax1
_atom_local_axes_atom1
_atom_local_axes_atom2
_atom_local_axes_ax2
O(1) C(1) Z O(1) C(8) Y
O(2) C(1) Z O(2) O(1) Y
C(8) O(1) Z C(8) C(7) Y
C(3) H(3) Z C(3) C(2) Y
C(7) H(7) Z C(7) C(6) Y
C(9) C(8) Z C(9) C(4) Y
C(4) H(4) Z C(4) C(5) Y
C(1) O(2) Z C(1) O(1) Y
C(2) H(2) Z C(2) C(3) Y
C(6) H(6) Z C(6) C(7) Y
C(5) H(5) Z C(5) C(4) Y
H(2) C(2) Z H(2) C(3) Y
H(6) C(6) Z H(6) C(7) Y
H(5) C(5) Z H(5) C(4) Y
H(7) C(7) Z H(7) C(8) Y
H(3) C(3) Z H(3) C(2) Y
H(4) C(4) Z H(4) C(9) Y

